
  32    4
  10   10   10   10

   0   0   0   0   0   2 2 20 
  10  10  10  10  10   1 3 
   7  10  10  10  10   1 4 
   5  10  10  10  10   1 5 
   3  10  10  10  10   1 6 
   5  10  10  10  10   1 7 
   5  10  10  10  10   1 8 
   4  10  10  10  10   1 9 
   9  10  10  10  10   1 10 
   6  10  10  10  10   1 11 
   6  10  10  10  10   1 12 
   8  10  10  10  10   1 13 
   4  10  10  10  10   2 31 14 
   6  10  10  10  10   1 15 
   3  10  10  10  10   2 30 16 
   2  10  10  10  10   1 17 
   9  10  10  10  10   2 29 18 
   4  10  10  10  10   2 28 19 
   1  10  10  10  10   2 27 21 
   2  10  10  10  10   2 27 22 
   9  10  10  10  10   1 22 
   9  10  10  10  10   1 23 
   1  10  10  10  10   1 24 
   2  10  10  10  10   1 25 
   5  10  10  10  10   1 26 
   4  10  10  10  10   1 32
   3  10  10  10  10   1 32
   4  10  10  10  10   1 32
   7  10  10  10  10   1 32
   8  10  10  10  10   1 32
   7  10  10  10  10   1 32
   0   0   0   0   0   0 
